 $contrl runtyp=makefp scftyp=rhf  icharg=0 $end
 $system mwords=3000 $end
 $basis  basnam(1)= _X_ $end
! $LOCAL POLNUM=.T. $END
 $scf diis=.true. dirscf=.true. $end
 $damp ifttyp=3 $end
 $makefp frag=_Y_ ctvvo=.f. $end
 $data
_Y_ - RHF
C1
_Z_
 $END
!----------------------------------------------------------------------
! Basis Set Exchange
! Version v0.8.13
! https://www.basissetexchange.org
!----------------------------------------------------------------------
!   Basis set: Sapporo-TZP-2012-diffuse
! Description:
!        Role: orbital
!     Version: 1  (Data from T. Noro)
!----------------------------------------------------------------------
 $dummy

 $end
 $HYDROGEN
S   4
1        82.9217781              0.0061626
2        12.4524160              0.0471423
3         2.8330522              0.2323138
4         0.8000097              0.7907494
S   1
1         0.2585946              1.0000000
S   1
1         0.0899690              1.0000000
S   1
1         0.0299897              1.0000000
P   2
1         2.8606730              0.1809312
2         0.8881900              0.8702112
P   1
1         0.3037760              1.0000000
P   1
1         0.1012587              1.0000000
D   2
1         1.7706130              0.3816542
2         0.5930810              0.7212254
D   1
1         0.2090016              1.0000000

 $END
 $CARBON
S   4
1      2806.9439980              0.0063870
2       421.5775500              0.0487330
3        95.8957400              0.2372630
4        26.9445500              0.7859430
S   2
1         4.9998840             -0.2106800
2         0.5327610              1.0776810
S   1
1         8.5713780              1.0000000
S   1
1         2.8716360              1.0000000
S   1
1         0.2075120              1.0000000
S   1
1         0.0868340              1.0000000
S   1
1         0.0289447              1.0000000
P   3
1        18.6818850              0.0394720
2         4.1250370              0.2443890
3         1.1979790              0.8152190
P   1
1        13.0163800              1.0000000
P   1
1         0.3821590              1.0000000
P   1
1         0.1206890              1.0000000
P   1
1         0.0402297              1.0000000
D   2
1         3.0148490              0.1119840
2         0.8820640              0.9354643
D   1
1         0.2854600              1.0000000
D   1
1         0.0951533              1.0000000
F   2
1         1.2468250              0.4396850
2         0.4390430              0.6863390
F   1
1         0.1520996              1.0000000

 $END
 $NITROGEN
S   4
1      3856.2068590              0.0063490
2       579.1574600              0.0484600
3       131.7433600              0.2364080
4        37.0425410              0.7867850
S   2
1         7.2064940             -0.2124200
2         0.7738780              1.0786700
S   1
1        11.8197380              1.0000000
S   1
1         3.9709940              1.0000000
S   1
1         0.3000840              1.0000000
S   1
1         0.1238360              1.0000000
S   1
1         0.0412787              1.0000000
P   3
1        26.6028040              0.0398410
2         5.9420010              0.2491070
3         1.7406590              0.8103620
P   1
1        18.1442220              1.0000000
P   1
1         0.5545280              1.0000000
P   1
1         0.1723670              1.0000000
P   1
1         0.0574557              1.0000000
D   2
1         4.5862240              0.1180460
2         1.3187720              0.9326950
D   1
1         0.4213840              1.0000000
D   1
1         0.1404613              1.0000000
F   2
1         1.8264550              0.4239549
2         0.6221640              0.7064247
F   1
1         0.2144357              1.0000000

 $END
 $FLUORINE
S   4
1      6459.8229240              0.0062960
2       970.1622170              0.0480860
3       220.6970470              0.2352300
4        62.1148490              0.7879410
S   2
1        12.8223120             -0.2133720
2         1.3940730              1.0797400
S   1
1        19.9014510              1.0000000
S   1
1         6.7129310              1.0000000
S   1
1         0.5383380              1.0000000
S   1
1         0.2164940              1.0000000
S   1
1         0.0721647              1.0000000
P   3
1        43.8426810              0.0419450
2         9.9159510              0.2628430
3         2.9279720              0.7975970
P   1
1        30.6649060              1.0000000
P   1
1         0.9124430              1.0000000
P   1
1         0.2668950              1.0000000
P   1
1         0.0889650              1.0000000
D   2
1         7.7201640              0.1480829
2         2.3088990              0.9111976
D   1
1         0.7618760              1.0000000
D   1
1         0.2539587              1.0000000
F   2
1         3.1505920              0.4253502
2         1.0122970              0.7163584
F   1
1         0.3472608              1.0000000

 $END
 $PHOSPHORUS
S   6
1     19038.3395300              0.0018820
2      2858.9644260              0.0143970
3       650.4307370              0.0709310
4       183.3838420              0.2421850
5        59.2385580              0.4773940
6        20.1843490              0.3391210
S   2
1        39.7749070             -0.1736720
2         4.2298650              1.0665460
S   2
1         2.2162500             -0.2864960
2         0.3039460              1.1204450
S   1
1         8.5166690              1.0000000
S   1
1         1.5820850              1.0000000
S   1
1         0.4726990              1.0000000
S   1
1         0.1103080              1.0000000
S   1
1         0.0367693              1.0000000
P   4
1       361.9884710              0.0089600
2        85.2900320              0.0684230
3        26.9116700              0.2922080
4         9.7252180              0.7332800
P   1
1         3.6814430              1.0000000
P   1
1         1.3885410              1.0000000
P   1
1         0.6094500              1.0000000
P   1
1         0.2266100              1.0000000
P   1
1         0.0826750              1.0000000
P   1
1         0.0275583              1.0000000
D   3
1         7.3520580              0.0188850
2         1.2582370              0.1811570
3         0.4530040              0.8711050
D   1
1        11.5651970              1.0000000
D   1
1         3.6669160              1.0000000
D   1
1         0.1683640              1.0000000
D   1
1         0.0561213              1.0000000
F   2
1        10.7188940              0.5718260
2         4.0384900              0.5472140
F   2
1         0.6507130              0.5440490
2         0.2573490              0.5647980
F   1
1         0.0923742              1.0000000

 $END
 $SULFUR
S   6
1     21839.6967750              0.0018650
2      3279.5798330              0.0142710
3       746.1274540              0.0703720
4       210.4040440              0.2408500
5        68.0310600              0.4764000
6        23.2065680              0.3417630
S   2
1        45.6293600             -0.1750920
2         4.9186440              1.0676940
S   2
1         2.7421110             -0.2995160
2         0.3857810              1.1271080
S   1
1        10.0296670              1.0000000
S   1
1         1.8713790              1.0000000
S   1
1         0.6611380              1.0000000
S   1
1         0.1379740              1.0000000
S   1
1         0.0459913              1.0000000
P   4
1       431.2070410              0.0086840
2       101.6921040              0.0668630
3        32.1663110              0.2888380
4        11.6741140              0.7366130
P   1
1         4.4564850              1.0000000
P   1
1         1.6973680              1.0000000
P   1
1         0.7968510              1.0000000
P   1
1         0.2903090              1.0000000
P   1
1         0.1018070              1.0000000
P   1
1         0.0339357              1.0000000
D   3
1         9.0616870              0.0203050
2         1.5848320              0.1880470
3         0.5729450              0.8652370
D   1
1        13.6859790              1.0000000
D   1
1         4.3967300              1.0000000
D   1
1         0.2121590              1.0000000
D   1
1         0.0707197              1.0000000
F   2
1        12.5982850              0.5785500
2         4.7552120              0.5400040
F   2
1         0.8167390              0.5249390
2         0.3085280              0.5930880
F   1
1         0.1094394              1.0000000

 $END
 $CHLORINE
S   6
1     24832.4328910              0.0018500
2      3728.9499700              0.0141620
3       848.3727820              0.0698860
4       239.2758340              0.2396890
5        77.4312380              0.4755160
6        26.4411160              0.3440690
S   2
1        51.9025660             -0.1760510
2         5.6571600              1.0685790
S   2
1         3.3096880             -0.3100620
2         0.4750380              1.1325480
S   1
1        11.6305220              1.0000000
S   1
1         2.1809850              1.0000000
S   1
1         0.8109360              1.0000000
S   1
1         0.1692780              1.0000000
S   1
1         0.0564260              1.0000000
P   4
1       507.0887010              0.0084450
2       119.6743750              0.0654840
3        37.9334120              0.2858090
4        13.8176680              0.7396180
P   1
1         5.3128940              1.0000000
P   1
1         2.0389200              1.0000000
P   1
1         1.0012980              1.0000000
P   1
1         0.3628850              1.0000000
P   1
1         0.1251470              1.0000000
P   1
1         0.0417157              1.0000000
D   3
1        11.1244530              0.0212950
2         1.9853310              0.1908210
3         0.7142000              0.8633490
D   1
1        16.0194450              1.0000000
D   1
1         5.2056760              1.0000000
D   1
1         0.2624240              1.0000000
D   1
1         0.0874747              1.0000000
F   2
1        14.7208760              0.5789330
2         5.5970440              0.5380530
F   2
1         1.0150010              0.5328190
2         0.3906680              0.5815050
F   1
1         0.1392230              1.0000000

 $END
 $ARSENIC
S   7
1    226850.4945170              0.0006240
2     34026.8620030              0.0048200
3      7743.4956850              0.0247260
4      2190.5399030              0.0960690
5       714.2499640              0.2691520
6       255.4835260              0.4631530
7        94.5675610              0.2858910
S   4
1       544.6724770             -0.0249460
2       169.1084490             -0.1197270
3        26.8202000              0.5898210
4        11.0751120              0.5015170
S   2
1        18.5721490             -0.3821200
2         3.1367350              1.1765010
S   2
1         1.8238500             -0.3115390
2         0.2832250              1.1418520
S   1
1         5.8182350              1.0000000
S   1
1         1.3211940              1.0000000
S   1
1         0.4540260              1.0000000
S   1
1         0.1037730              1.0000000
S   1
1         0.0345910              1.0000000
P   7
1      4643.6977490              0.0010340
2      1100.7269320              0.0087760
3       355.6063570              0.0452040
4       134.3333380              0.1582230
5        55.6654370              0.3506150
6        24.2870810              0.4337970
7        10.3809250              0.1853890
P   2
1        50.7570220             -0.0606510
2         7.3425070              1.0202330
P   1
1         3.0538100              1.0000000
P   1
1         1.2331210              1.0000000
P   1
1         0.4531010              1.0000000
P   1
1         0.1775270              1.0000000
P   1
1         0.0685610              1.0000000
P   1
1         0.0228537              1.0000000
D   4
1       210.8419620              0.0102350
2        62.9392920              0.0779960
3        23.4422470              0.3071570
4         9.6428080              0.7206210
D   2
1         1.6548850              0.7859040
2         0.6184660              0.2869580
D   2
1         0.6282200              0.2565230
2         0.4286820              0.7553310
D   1
1         4.0486320              1.0000000
D   1
1         0.1752580              1.0000000
D   1
1         0.0584193              1.0000000
F   2
1        15.9572970              0.2472060
2         6.3213590              0.8261780
F   2
1         0.6010040              0.5222640
2         0.2432960              0.5814570
F   1
1         2.4552850              1.0000000
F   1
1         0.0871659              1.0000000
G   2
1         7.7830880              0.6281600
2         3.0220800              0.5049810
G   1
1         1.0619087              1.0000000

 $END
 $SELENIUM
S   7
1    241498.6382410              0.0006220
2     36223.7408740              0.0048040
3      8243.4547010              0.0246510
4      2332.0080830              0.0958070
5       760.4702670              0.2686020
6       272.0485850              0.4630600
7       100.7295010              0.2867690
S   4
1       578.5796310             -0.0250730
2       179.7486760             -0.1201900
3        28.6642790              0.5887200
4        11.8693550              0.5028220
S   2
1        19.9031660             -0.3843670
2         3.3851280              1.1782830
S   2
1         2.0728540             -0.7509250
2         0.3352240              1.2220290
S   1
1         6.3545090              1.0000000
S   1
1         1.4483920              1.0000000
S   1
1         0.3843810              1.0000000
S   1
1         0.1324040              1.0000000
S   1
1         0.0441347              1.0000000
P   7
1      4987.1768460              0.0010200
2      1182.1765260              0.0086630
3       381.9907150              0.0447140
4       144.3524460              0.1570340
5        59.8682610              0.3493520
6        26.1507530              0.4345020
7        11.1948830              0.1871030
P   2
1        54.3041570             -0.0619400
2         7.9587020              1.0209070
P   1
1         3.3433340              1.0000000
P   1
1         1.3700990              1.0000000
P   1
1         0.5441070              1.0000000
P   1
1         0.2107080              1.0000000
P   1
1         0.0794330              1.0000000
P   1
1         0.0264777              1.0000000
D   4
1       237.0548230              0.0097750
2        70.8504950              0.0756500
3        26.4912430              0.3028310
4        10.9539120              0.7249200
D   2
1         1.9254420              0.7925960
2         0.7322820              0.2763360
D   2
1         0.6711070              0.4317090
2         0.4696350              0.5817490
D   1
1         4.6411650              1.0000000
D   1
1         0.2070300              1.0000000
D   1
1         0.0690100              1.0000000
F   2
1        18.1916490              0.2347000
2         7.1906140              0.8361540
F   2
1         0.6865420              0.5092920
2         0.2649740              0.6037440
F   1
1         2.8197680              1.0000000
F   1
1         0.0939621              1.0000000
G   2
1         8.6231380              0.6301500
2         3.3770720              0.5007280
G   1
1         1.1888776              1.0000000

 $END
 $BROMINE
S   7
1    256645.2030350              0.0006200
2     38495.7766880              0.0047890
3      8760.5091680              0.0245750
4      2478.2838090              0.0955460
5       808.2447350              0.2680610
6       289.1625260              0.4629770
7       107.0934730              0.2876340
S   4
1       613.5224520             -0.0251920
2       190.7138380             -0.1206300
3        30.5707660              0.5876350
4        12.6928880              0.5040970
S   2
1        21.2820420             -0.3855300
2         3.6421400              1.1795990
S   2
1         2.3287830             -0.3573100
2         0.3897860              1.1669070
S   1
1         6.9741070              1.0000000
S   1
1         1.5786500              1.0000000
S   1
1         0.6257260              1.0000000
S   1
1         0.1448160              1.0000000
S   1
1         0.0482720              1.0000000
P   7
1      5342.2168570              0.0010070
2      1266.3113490              0.0085600
3       409.2546340              0.0442670
4       154.7191940              0.1559270
5        64.2264070              0.3481000
6        28.0884740              0.4351270
7        12.0437880              0.1887700
P   2
1        57.9722830             -0.0631510
2         8.6008240              1.0215510
P   1
1         3.6481400              1.0000000
P   1
1         1.5138270              1.0000000
P   1
1         0.6376020              1.0000000
P   1
1         0.2473000              1.0000000
P   1
1         0.0927540              1.0000000
P   1
1         0.0309180              1.0000000
D   4
1       264.0046180              0.0094000
2        78.9818410              0.0737030
3        29.6281250              0.2992380
4        12.3049910              0.7284750
D   2
1         0.7355690              0.5870990
2         0.5307730              0.4241230
D   1
1         5.2531260              1.0000000
D   1
1         2.2061740              1.0000000
D   1
1         0.2458070              1.0000000
D   1
1         0.0819357              1.0000000
F   2
1        20.6575050              0.2227260
2         8.1404840              0.8456990
F   2
1         0.8018640              0.5219560
2         0.3191430              0.5852080
F   1
1         3.2279700              1.0000000
F   1
1         0.1140282              1.0000000
G   2
1         9.5592040              0.6269190
2         3.7970020              0.5006670
G   1
1         1.3391362              1.0000000

 $END